Set parameter Username
Academic license - for non-commercial use only - expires 2024-10-29
Set parameter LazyConstraints to value 1
Set parameter TimeLimit to value 600
Gurobi Optimizer version 10.0.0 build v10.0.0rc2 (linux64)

CPU model: AMD FX(tm)-4300 Quad-Core Processor, instruction set [SSE2|AVX]
Thread count: 2 physical cores, 4 logical processors, using up to 4 threads

Optimize a model with 2583 rows, 625 columns and 2716 nonzeros
Model fingerprint: 0x6d139b6b
Variable types: 0 continuous, 625 integer (625 binary)
Coefficient statistics:
  Matrix range     [1e+00, 1e+00]
  Objective range  [1e+00, 1e+01]
  Bounds range     [1e+00, 1e+00]
  RHS range        [1e+00, 1e+00]
Presolve removed 2530 rows and 26 columns
Presolve time: 0.00s
Presolved: 53 rows, 599 columns, 169 nonzeros
Variable types: 0 continuous, 599 integer (599 binary)

Root relaxation: objective 2.450000e+02, 49 iterations, 0.00 seconds (0.00 work units)

    Nodes    |    Current Node    |     Objective Bounds      |     Work
 Expl Unexpl |  Obj  Depth IntInf | Incumbent    BestBd   Gap | It/Node Time

     0     0  245.00000    0    -          -  245.00000      -     -    4s
     0     0  249.00000    0    -          -  249.00000      -     -    5s
     0     0  251.00000    0    -          -  251.00000      -     -    5s
     0     0  254.00000    0    -          -  254.00000      -     -    6s
     0     0  256.00000    0    -          -  256.00000      -     -    7s
     0     0  256.00000    0    -          -  256.00000      -     -    8s
     0     0  258.00000    0    -          -  258.00000      -     -    9s
     0     0  258.00000    0    -          -  258.00000      -     -   10s
     0     0  259.00000    0    -          -  259.00000      -     -   11s
     0     0  259.00000    0    -          -  259.00000      -     -   12s
     0     0  259.33333    0    4          -  259.33333      -     -   12s
     0     0  386.00000    0    -          -  386.00000      -     -   19s
     0     0  388.00000    0    -          -  388.00000      -     -   20s
     0     0  388.00000    0    -          -  388.00000      -     -   21s
H    0     0                    1010.0000000  388.33333  61.6%     -   21s
     0     0  388.33333    0    6 1010.00000  388.33333  61.6%     -   21s
     0     0  441.00000    0    - 1010.00000  441.00000  56.3%     -   31s
     0     0  442.00000    0    - 1010.00000  442.00000  56.2%     -   32s
     0     0  443.00000    0    - 1010.00000  443.00000  56.1%     -   33s
     0     0  443.00000    0    - 1010.00000  443.00000  56.1%     -   33s
     0     0  444.00000    0    - 1010.00000  444.00000  56.0%     -   34s
     0     0  445.00000    0    - 1010.00000  445.00000  55.9%     -   35s
     0     0  445.00000    0    - 1010.00000  445.00000  55.9%     -   36s
     0     0  445.00000    0    - 1010.00000  445.00000  55.9%     -   37s
     0     0  445.00000    0    - 1010.00000  445.00000  55.9%     -   37s
     0     0  445.00000    0    - 1010.00000  445.00000  55.9%     -   38s
     0     0  445.00000    0    - 1010.00000  445.00000  55.9%     -   39s
     0     0  445.00000    0    - 1010.00000  445.00000  55.9%     -   40s
     0     0  450.00000    0    - 1010.00000  450.00000  55.4%     -   41s
     0     0  450.00000    0    - 1010.00000  450.00000  55.4%     -   42s
     0     0  450.00000    0    - 1010.00000  450.00000  55.4%     -   43s
     0     0  450.00000    0    - 1010.00000  450.00000  55.4%     -   44s
     0     0  450.00000    0    - 1010.00000  450.00000  55.4%     -   44s
     0     0  450.00000    0    - 1010.00000  450.00000  55.4%     -   45s
H    0     0                     985.0000000  450.12500  54.3%     -   46s
     0     0  450.12500    0    9  985.00000  450.12500  54.3%     -   46s
H    0     0                     955.0000000  486.50000  49.1%     -   52s
     0     0  486.50000    0    7  955.00000  486.50000  49.1%     -   52s
     0     0  509.50000    0    3  955.00000  509.50000  46.6%     -   53s
     0     0  527.00000    0    -  955.00000  527.00000  44.8%     -   63s
     0     0  527.00000    0    -  955.00000  527.00000  44.8%     -   64s
     0     0  527.00000    0    -  955.00000  527.00000  44.8%     -   64s
H    0     0                     898.0000000  527.50000  41.3%     -   65s
     0     0  527.50000    0    5  898.00000  527.50000  41.3%     -   65s
     0     0  543.66667    0    5  898.00000  543.66667  39.5%     -   66s
     0     0  553.00000    0    -  898.00000  553.00000  38.4%     -   68s
     0     0  553.00000    0    -  898.00000  553.00000  38.4%     -   69s
     0     0  553.00000    0    -  898.00000  553.00000  38.4%     -   70s
     0     0  553.00000    0    -  898.00000  553.00000  38.4%     -   71s
     0     0  553.33333    0    6  898.00000  553.33333  38.4%     -   71s
     0     0  559.33333    0    6  898.00000  559.33333  37.7%     -   78s
     0     0  563.50000    0    8  898.00000  563.50000  37.2%     -   78s
     0     0  563.50000    0    8  898.00000  563.50000  37.2%     -   84s
     0     0  563.50000    0    8  898.00000  563.50000  37.2%     -   89s
H    0     2                     882.0000000  563.50000  36.1%     -   93s
     0     2  568.00000    0    4  882.00000  568.00000  35.6%     -   93s
H    1     4                     870.0000000  568.00000  34.7%   0.0   94s
H    2     4                     869.0000000  568.00000  34.6%  37.0   95s
    15    20  579.83129    5   25  869.00000  574.92308  33.8%  76.3  101s
    29    36  579.87732   12   22  869.00000  574.92308  33.8%  41.9  105s
    53    66  580.00062   20   22  869.00000  574.92308  33.8%  27.3  113s
    72    80  580.42857   25   20  869.00000  574.92308  33.8%  22.2  120s
    95   108  580.08333   36   21  869.00000  574.92308  33.8%  18.0  127s
   107   130  580.07692   45   17  869.00000  574.92308  33.8%  17.2  132s
   129   155  580.42008   52   24  869.00000  574.92308  33.8%  16.0  140s
   154   187  580.63305   61   20  869.00000  574.92308  33.8%  14.5  148s
   170   187  581.14925   59   19  869.00000  574.92308  33.8%  14.0  153s
   186   222  581.14286   72   19  869.00000  574.92308  33.8%  13.2  158s
   203   222  581.26923   73   20  869.00000  574.92308  33.8%  12.7  164s
   221   266  581.23214   86   17  869.00000  574.92308  33.8%  12.1  169s
   267   305  584.00000  107   10  869.00000  574.93925  33.8%  10.7  184s
   319   368  580.05591    4   40  869.00000  574.93925  33.8%  10.3  200s
   383   422  580.32750   30   21  869.00000  574.93925  33.8%   9.7  220s
   439   456  580.57576   57   20  869.00000  574.93925  33.8%   9.9  239s
H  447   456                     865.0000000  574.93925  33.5%   9.9  243s
   472   507  581.35714   72   20  865.00000  574.93925  33.5%  10.1  252s
   522   526  584.66667   90   13  865.00000  574.93925  33.5%  10.1  270s
   542   528  581.48658   38   20  865.00000  574.93925  33.5%  10.1  277s
   603   639  590.30000  132   15  865.00000  574.93925  33.5%  10.1  297s
   683   683  597.00000  156    -  865.00000  575.20748  33.5%   9.8  325s
   738   695  580.84615   67    8  865.00000  575.20748  33.5%  10.0  345s
   741   697  587.33333  115   34  865.00000  579.93982  33.0%  10.0  355s
   744   699  583.33893   10   31  865.00000  583.33893  32.6%   9.9  363s
   745   700  584.32349   60   34  865.00000  584.32349  32.4%   9.9  365s
H  746   700                     862.0000000  586.07103  32.0%   9.9  367s
   748   702  586.68248    5   31  862.00000  586.68248  31.9%   9.9  370s
H  752   704                     861.0000000  591.49857  31.3%   9.8  375s
   755   706  592.73898   39   46  861.00000  592.73898  31.2%   9.8  380s
H  756   707                     860.0000000  594.15746  30.9%   9.8  382s
   759   712  595.65522   16   44  860.00000  594.83418  30.8%  11.7  386s
   769   721  598.98422   18   52  860.00000  596.76053  30.6%  12.8  391s
   781   729  602.58191   20   60  860.00000  596.77338  30.6%  14.8  396s
H  786   731                     853.0000000  596.77338  30.0%  15.3  398s
   792   733  604.69687   20   66  853.00000  598.87934  29.8%  16.6  400s
H  794   736                     839.0000000  598.87934  28.6%  16.9  402s
   801   742  607.79819   22   62  839.00000  598.87934  28.6%  18.8  405s
   813   750  610.19161   24   77  839.00000  598.87934  28.6%  21.7  410s
H  820   752                     822.0000000  598.87934  27.1%  22.6  413s
   824   754  611.16406   21   81  822.00000  598.87934  27.1%  24.0  415s
H  837   766                     810.0000000  598.87934  26.1%  27.0  421s
   844   769  617.99481   27   74  810.00000  598.87934  26.1%  28.3  425s
H  845   768                     805.0000000  598.87934  25.6%  28.2  426s
   865   785  618.10828   28   77  805.00000  598.87934  25.6%  29.4  433s
   873   787  615.41734   22   85  805.00000  598.87934  25.6%  29.9  435s
   892   801  615.48143   22   82  805.00000  598.87934  25.6%  29.9  442s
   913   814  616.21256   23   83  805.00000  598.87934  25.6%  30.3  449s
   916   817  618.30482   37   74  805.00000  598.87934  25.6%  30.3  450s
   933   835  618.28008   37   78  805.00000  598.87934  25.6%  30.4  456s
   966   857  619.49733   50   60  805.00000  598.87934  25.6%  30.9  468s
   975   884  619.53105   52   60  805.00000  598.87934  25.6%  30.8  471s
  1005   907  619.58905   55   59  805.00000  598.87934  25.6%  30.7  482s
  1038   904  619.84249   61   55  805.00000  598.87934  25.6%  30.6  493s
  1044   902  618.67939   53   69  805.00000  598.87934  25.6%  30.6  495s
  1079   954  619.94182   67   58  805.00000  598.87934  25.6%  30.6  509s
  1110   951  620.07960   71   63  805.00000  598.87934  25.6%  30.6  521s
  1161  1015  620.16559   78   48  805.00000  598.87934  25.6%  30.4  539s
  1198  1017  620.35603   83   45  805.00000  598.87934  25.6%  30.3  551s
  1212  1027  620.43164   87   45  805.00000  598.87934  25.6%  30.3  556s
  1227  1071  620.46138   88   46  805.00000  598.87934  25.6%  30.2  561s
  1276  1069  620.57195   96   50  805.00000  598.87934  25.6%  30.2  579s
  1290  1121  620.69378   98   48  805.00000  598.87934  25.6%  30.2  583s

Cutting planes:
  User: 114
  Gomory: 1
  Flow cover: 2
  Zero half: 2
  Lazy constraints: 53

Explored 1347 nodes (41064 simplex iterations) in 601.61 seconds (4.34 work units)
Thread count was 4 (of 4 available processors)

Solution count 10: 805 810 822 ... 869

Time limit reached
Best objective 8.050000000000e+02, best bound 5.990000000000e+02, gap 25.5901%

User-callback calls 4655, time in user-callback 597.32 sec
